g3 2 1 0	# problem inst_sans_ref
 41 133 1 0 33	# vars, constraints, objectives, ranges, eqns
 33 1	# nonlinear constraints, objectives
 0 0	# network constraints: nonlinear, linear
 8 8 8	# nonlinear vars in constraints, objectives, both
 0 0 0 1	# linear network variables; functions; arith, flags
 0 0 0 0 0	# discrete variables: binary, integer, nonlinear (b,c,o)
 330 39	# nonzeros in Jacobian, gradients
 0 0	# max name lengths: constraints, variables
 0 0 0 0 0	# common exprs: b,c,o,c1,o1
b
0 0 1
0 0 1
0 0 1
0 0 1
0 0 1
0 0 1
0 0 1
0 0 1
0 0 1
0 0 1
0 0 1
0 0 1
0 0 1
0 0 1
0 0 1
0 0 1
0 0 1
0 0 1
0 0 1
0 0 1
0 0 1
0 0 1
0 0 1
0 0 1
0 0 1
0 0 1
0 0 1
0 0 1
0 0 1
0 0 1
0 0 1
0 0 1
0 0 1
0 0 1
0 0 1
0 0 1
0 0 1
0 0 1
0 0 1
0 0 1
0 0 1
r
4 0
4 0
4 0
4 0
4 0
4 0
4 0
4 0
4 0
4 0
4 0
4 0
4 0
4 0
4 0
4 0
4 0
4 0
4 0
4 0
4 0
4 0
4 0
4 0
4 0
4 0
4 0
4 0
4 0
4 0
4 0
4 0
4 0
1 8.52
1 0
1 0
1 0
1 0
1 0
1 0
1 0
1 0
1 0
1 0
1 0
1 0
1 0
1 0
1 0
1 0
1 0
1 0
1 0
1 0
1 0
1 0
1 0
1 0
1 0
1 0
1 0
1 0
1 0
1 0
1 0
1 0
1 0
1 0
1 0
1 0
1 0
1 0
1 0
1 0
1 0
1 0
1 0
1 0
1 0
1 0
1 0
1 0
1 0
1 0
1 0
1 0
1 0
1 0
1 0
1 0
1 0
1 0
2 -1
2 -1
2 -1
2 -1
2 -1
2 -1
2 -1
2 -1
2 -1
2 -1
2 -1
2 -1
2 -1
2 -1
2 -1
2 -1
2 -1
2 -1
2 -1
2 -1
2 -1
2 -1
2 -1
2 -1
2 -1
2 -1
2 -1
2 -1
2 -1
2 -1
2 -1
2 -1
2 -1
2 0
2 0
2 0
2 0
2 0
2 0
2 0
2 0
C0
o16
o2
v0
v0
C1
o16
o2
v0
v1
C2
o16
o2
v0
v2
C3
o16
o2
v0
v3
C4
o16
o2
v0
v4
C5
o16
o2
v0
v6
C6
o16
o2
v0
v7
C7
o16
o2
v1
v1
C8
o16
o2
v1
v2
C9
o16
o2
v1
v3
C10
o16
o2
v1
v4
C11
o16
o2
v1
v5
C12
o16
o2
v1
v6
C13
o16
o2
v1
v7
C14
o16
o2
v2
v2
C15
o16
o2
v2
v3
C16
o16
o2
v2
v4
C17
o16
o2
v2
v5
C18
o16
o2
v2
v6
C19
o16
o2
v2
v7
C20
o16
o2
v3
v3
C21
o16
o2
v3
v4
C22
o16
o2
v3
v5
C23
o16
o2
v3
v6
C24
o16
o2
v3
v7
C25
o16
o2
v4
v4
C26
o16
o2
v4
v5
C27
o16
o2
v4
v6
C28
o16
o2
v5
v5
C29
o16
o2
v5
v6
C30
o16
o2
v6
v6
C31
o16
o2
v6
v7
C32
o16
o2
v7
v7
C33
n0
C34
n0
C35
n0
C36
n0
C37
n0
C38
n0
C39
n0
C40
n0
C41
n0
C42
n0
C43
n0
C44
n0
C45
n0
C46
n0
C47
n0
C48
n0
C49
n0
C50
n0
C51
n0
C52
n0
C53
n0
C54
n0
C55
n0
C56
n0
C57
n0
C58
n0
C59
n0
C60
n0
C61
n0
C62
n0
C63
n0
C64
n0
C65
n0
C66
n0
C67
n0
C68
n0
C69
n0
C70
n0
C71
n0
C72
n0
C73
n0
C74
n0
C75
n0
C76
n0
C77
n0
C78
n0
C79
n0
C80
n0
C81
n0
C82
n0
C83
n0
C84
n0
C85
n0
C86
n0
C87
n0
C88
n0
C89
n0
C90
n0
C91
n0
C92
n0
C93
n0
C94
n0
C95
n0
C96
n0
C97
n0
C98
n0
C99
n0
C100
n0
C101
n0
C102
n0
C103
n0
C104
n0
C105
n0
C106
n0
C107
n0
C108
n0
C109
n0
C110
n0
C111
n0
C112
n0
C113
n0
C114
n0
C115
n0
C116
n0
C117
n0
C118
n0
C119
n0
C120
n0
C121
n0
C122
n0
C123
n0
C124
n0
C125
n0
C126
n0
C127
n0
C128
n0
C129
n0
C130
n0
C131
n0
C132
n0
O0 0
o54
54
o2
o2
n0.729843
v0
v0
o2
o2
n-0.090042
v0
v1
o2
o2
n0.068541
v0
v2
o2
o2
n-0.066719
v0
v3
o2
o2
n-0.015367
v0
v4
o2
o2
n0.214168
v0
v6
o2
o2
n0.514031
v0
v7
o2
o2
n-0.090042
v1
v0
o2
o2
n0.025489
v1
v1
o2
o2
n-0.028282
v1
v2
o2
o2
n0.083632
v1
v3
o2
o2
n0.01571
v1
v5
o2
o2
n0.01579
v1
v6
o2
o2
n-0.111806
v1
v7
o2
o2
n0.068541
v2
v0
o2
o2
n-0.028282
v2
v1
o2
o2
n1.526728
v2
v2
o2
o2
n-0.088967
v2
v3
o2
o2
n0.010196
v2
v4
o2
o2
n-0.542368
v2
v5
o2
o2
n-0.658054
v2
v6
o2
o2
n0.124723
v2
v7
o2
o2
n-0.066719
v3
v0
o2
o2
n0.083632
v3
v1
o2
o2
n-0.088967
v3
v2
o2
o2
n0.490384
v3
v3
o2
o2
n0.001111
v3
v4
o2
o2
n0.038504
v3
v6
o2
o2
n-0.372197
v3
v7
o2
o2
n-0.015367
v4
v0
o2
o2
n0.010196
v4
v2
o2
o2
n0.001111
v4
v3
o2
o2
n0.002638
v4
v4
o2
o2
n-0.010621
v4
v5
o2
o2
n-0.041712
v4
v6
o2
o2
n0.01571
v5
v1
o2
o2
n-0.542368
v5
v2
o2
o2
n-0.010621
v5
v4
o2
o2
n0.433072
v5
v5
o2
o2
n0.022025
v5
v6
o2
o2
n0.214168
v6
v0
o2
o2
n0.01579
v6
v1
o2
o2
n-0.658054
v6
v2
o2
o2
n0.038504
v6
v3
o2
o2
n-0.041712
v6
v4
o2
o2
n0.022025
v6
v5
o2
o2
n1.78862
v6
v6
o2
o2
n0.04856
v6
v7
o2
o2
n0.514031
v7
v0
o2
o2
n-0.111806
v7
v1
o2
o2
n0.124723
v7
v2
o2
o2
n-0.372197
v7
v3
o2
o2
n0.04856
v7
v6
o2
o2
n0.740495
v7
v7
k40
23
49
75
101
124
144
170
190
194
198
202
206
210
214
219
223
227
231
236
241
245
249
253
257
262
266
271
276
280
285
290
294
298
302
306
310
314
318
322
326
J0 2
0 0
8 1
J1 3
0 0
1 0
9 1
J2 3
0 0
2 0
10 1
J3 3
0 0
3 0
11 1
J4 3
0 0
4 0
12 1
J5 3
0 0
6 0
13 1
J6 3
0 0
7 0
14 1
J7 2
1 0
15 1
J8 3
1 0
2 0
16 1
J9 3
1 0
3 0
17 1
J10 3
1 0
4 0
18 1
J11 3
1 0
5 0
19 1
J12 3
1 0
6 0
20 1
J13 3
1 0
7 0
21 1
J14 2
2 0
22 1
J15 3
2 0
3 0
23 1
J16 3
2 0
4 0
24 1
J17 3
2 0
5 0
25 1
J18 3
2 0
6 0
26 1
J19 3
2 0
7 0
27 1
J20 2
3 0
28 1
J21 3
3 0
4 0
29 1
J22 3
3 0
5 0
30 1
J23 3
3 0
6 0
31 1
J24 3
3 0
7 0
32 1
J25 2
4 0
33 1
J26 3
4 0
5 0
34 1
J27 3
4 0
6 0
35 1
J28 2
5 0
36 1
J29 3
5 0
6 0
37 1
J30 2
6 0
38 1
J31 3
6 0
7 0
39 1
J32 2
7 0
40 1
J33 16
0 -0.17
1 -0.39
2 -0.84
3 0.16
4 -0.3
5 -0.74
6 0.08
7 -0.83
14 0.27
18 1.85
19 -0.15
24 1.26
26 1.85
27 1.8
29 1.28
30 -0.41
J34 2
0 -1
8 1
J35 2
0 -1
9 1
J36 2
0 -1
10 1
J37 2
0 -1
11 1
J38 2
0 -1
12 1
J39 2
0 -1
13 1
J40 2
0 -1
14 1
J41 2
1 -1
15 1
J42 2
1 -1
16 1
J43 2
1 -1
17 1
J44 2
1 -1
18 1
J45 2
1 -1
19 1
J46 2
1 -1
20 1
J47 2
1 -1
21 1
J48 2
2 -1
22 1
J49 2
2 -1
23 1
J50 2
2 -1
24 1
J51 2
2 -1
25 1
J52 2
2 -1
26 1
J53 2
2 -1
27 1
J54 2
3 -1
28 1
J55 2
3 -1
29 1
J56 2
3 -1
30 1
J57 2
3 -1
31 1
J58 2
3 -1
32 1
J59 2
4 -1
33 1
J60 2
4 -1
34 1
J61 2
4 -1
35 1
J62 2
5 -1
36 1
J63 2
5 -1
37 1
J64 2
6 -1
38 1
J65 2
6 -1
39 1
J66 2
7 -1
40 1
J67 2
1 -1
9 1
J68 2
2 -1
10 1
J69 2
3 -1
11 1
J70 2
4 -1
12 1
J71 2
6 -1
13 1
J72 2
7 -1
14 1
J73 2
2 -1
16 1
J74 2
3 -1
17 1
J75 2
4 -1
18 1
J76 2
5 -1
19 1
J77 2
6 -1
20 1
J78 2
7 -1
21 1
J79 2
3 -1
23 1
J80 2
4 -1
24 1
J81 2
5 -1
25 1
J82 2
6 -1
26 1
J83 2
7 -1
27 1
J84 2
4 -1
29 1
J85 2
5 -1
30 1
J86 2
6 -1
31 1
J87 2
7 -1
32 1
J88 2
5 -1
34 1
J89 2
6 -1
35 1
J90 2
6 -1
37 1
J91 2
7 -1
39 1
J92 2
0 -2
8 1
J93 3
0 -1
1 -1
9 1
J94 3
0 -1
2 -1
10 1
J95 3
0 -1
3 -1
11 1
J96 3
0 -1
4 -1
12 1
J97 3
0 -1
6 -1
13 1
J98 3
0 -1
7 -1
14 1
J99 2
1 -2
15 1
J100 3
1 -1
2 -1
16 1
J101 3
1 -1
3 -1
17 1
J102 3
1 -1
4 -1
18 1
J103 3
1 -1
5 -1
19 1
J104 3
1 -1
6 -1
20 1
J105 3
1 -1
7 -1
21 1
J106 2
2 -2
22 1
J107 3
2 -1
3 -1
23 1
J108 3
2 -1
4 -1
24 1
J109 3
2 -1
5 -1
25 1
J110 3
2 -1
6 -1
26 1
J111 3
2 -1
7 -1
27 1
J112 2
3 -2
28 1
J113 3
3 -1
4 -1
29 1
J114 3
3 -1
5 -1
30 1
J115 3
3 -1
6 -1
31 1
J116 3
3 -1
7 -1
32 1
J117 2
4 -2
33 1
J118 3
4 -1
5 -1
34 1
J119 3
4 -1
6 -1
35 1
J120 2
5 -2
36 1
J121 3
5 -1
6 -1
37 1
J122 2
6 -2
38 1
J123 3
6 -1
7 -1
39 1
J124 2
7 -2
40 1
J125 2
0 -1
8 1
J126 2
1 -1
15 1
J127 2
2 -1
22 1
J128 2
3 -1
28 1
J129 2
4 -1
33 1
J130 2
5 -1
36 1
J131 2
6 -1
38 1
J132 2
7 -1
40 1
G0 39
0 -0.06
1 0.72
2 0.3
3 0.17
4 0
5 0.79
6 -0.84
7 0.39
8 -0.729843
9 0.180083
10 -0.137081
11 0.133438
12 -0.519265
13 0.091663
14 0.841938
15 -0.025489
16 0.056564
17 -0.167264
19 -0.03142
20 -0.03158
21 -0.496389
22 -1.526728
23 0.177933
24 -0.020391
25 -0.165264
26 -0.013892
27 0.240554
28 -0.490384
29 -0.002221
31 -0.077008
32 -0.765606
33 -0.002638
34 0.021242
35 0.083425
36 -0.433072
37 -0.044051
38 -1.78862
39 -0.09712
40 -0.740495
